NAME : 0
COMMENT : CVRP Instance
TYPE : CVRP
DIMENSION : 733
EDGE_WEIGHT_TYPE : EUC_2D
CAPACITY : 25
NODE_COORD_SECTION
1	500.0	500.0
2	143.0	12.0
3	206.0	907.0
4	895.0	855.0
5	640.0	970.0
6	865.0	716.0
7	993.0	356.0
8	618.0	966.0
9	963.0	539.0
10	50.0	979.0
11	241.0	998.0
12	32.0	206.0
13	288.0	926.0
14	299.0	507.0
15	336.0	180.0
16	589.0	726.0
17	665.0	488.0
18	36.0	521.0
19	112.0	895.0
20	814.0	442.0
21	843.0	474.0
22	17.0	258.0
23	360.0	273.0
24	814.0	537.0
25	775.0	524.0
26	825.0	471.0
27	321.0	87.0
28	773.0	958.0
29	119.0	166.0
30	368.0	928.0
31	193.0	250.0
32	452.0	919.0
33	736.0	322.0
34	386.0	911.0
35	624.0	313.0
36	694.0	398.0
37	186.0	803.0
38	948.0	721.0
39	216.0	973.0
40	915.0	641.0
41	238.0	810.0
42	946.0	172.0
43	23.0	561.0
44	613.0	657.0
45	359.0	434.0
46	604.0	96.0
47	56.0	554.0
48	862.0	723.0
49	222.0	161.0
50	974.0	838.0
51	775.0	67.0
52	815.0	880.0
53	204.0	362.0
54	435.0	760.0
55	593.0	358.0
56	203.0	435.0
57	882.0	803.0
58	194.0	739.0
59	380.0	323.0
60	836.0	461.0
61	537.0	136.0
62	789.0	669.0
63	956.0	1000.0
64	98.0	295.0
65	656.0	410.0
66	580.0	959.0
67	594.0	64.0
68	459.0	43.0
69	425.0	559.0
70	262.0	31.0
71	522.0	339.0
72	960.0	74.0
73	237.0	910.0
74	353.0	828.0
75	420.0	281.0
76	721.0	524.0
77	185.0	679.0
78	703.0	303.0
79	923.0	491.0
80	444.0	792.0
81	567.0	476.0
82	987.0	930.0
83	113.0	210.0
84	907.0	45.0
85	383.0	799.0
86	209.0	192.0
87	34.0	820.0
88	464.0	717.0
89	837.0	536.0
90	202.0	94.0
91	177.0	341.0
92	551.0	3.0
93	835.0	467.0
94	128.0	655.0
95	988.0	937.0
96	179.0	369.0
97	487.0	765.0
98	975.0	406.0
99	365.0	411.0
100	440.0	41.0
101	607.0	487.0
102	57.0	898.0
103	161.0	707.0
104	0.0	517.0
105	210.0	88.0
106	524.0	195.0
107	682.0	409.0
108	608.0	55.0
109	16.0	909.0
110	846.0	379.0
111	183.0	242.0
112	586.0	182.0
113	948.0	682.0
114	324.0	44.0
115	380.0	573.0
116	339.0	188.0
117	629.0	32.0
118	589.0	805.0
119	934.0	907.0
120	848.0	633.0
121	890.0	973.0
122	98.0	787.0
123	964.0	391.0
124	171.0	837.0
125	261.0	409.0
126	637.0	133.0
127	541.0	313.0
128	946.0	388.0
129	479.0	636.0
130	818.0	503.0
131	188.0	602.0
132	887.0	643.0
133	981.0	839.0
134	585.0	570.0
135	383.0	325.0
136	288.0	219.0
137	407.0	596.0
138	707.0	525.0
139	56.0	193.0
140	523.0	502.0
141	102.0	374.0
142	282.0	573.0
143	90.0	56.0
144	538.0	143.0
145	614.0	30.0
146	237.0	435.0
147	823.0	405.0
148	363.0	560.0
149	192.0	314.0
150	826.0	849.0
151	541.0	870.0
152	604.0	432.0
153	292.0	364.0
154	131.0	65.0
155	990.0	723.0
156	944.0	209.0
157	68.0	210.0
158	564.0	354.0
159	865.0	378.0
160	646.0	604.0
161	883.0	273.0
162	362.0	499.0
163	313.0	888.0
164	49.0	95.0
165	797.0	864.0
166	93.0	297.0
167	439.0	445.0
168	74.0	429.0
169	76.0	683.0
170	152.0	66.0
171	796.0	886.0
172	716.0	113.0
173	693.0	324.0
174	263.0	134.0
175	893.0	184.0
176	549.0	927.0
177	817.0	770.0
178	976.0	350.0
179	692.0	957.0
180	227.0	408.0
181	323.0	894.0
182	169.0	573.0
183	106.0	959.0
184	982.0	365.0
185	292.0	960.0
186	552.0	181.0
187	505.0	588.0
188	119.0	372.0
189	506.0	122.0
190	160.0	569.0
191	208.0	381.0
192	530.0	266.0
193	947.0	928.0
194	857.0	644.0
195	990.0	518.0
196	178.0	652.0
197	305.0	811.0
198	834.0	331.0
199	577.0	316.0
200	607.0	398.0
201	471.0	599.0
202	111.0	69.0
203	149.0	735.0
204	437.0	140.0
205	38.0	10.0
206	37.0	315.0
207	841.0	876.0
208	870.0	781.0
209	806.0	151.0
210	789.0	38.0
211	238.0	478.0
212	182.0	984.0
213	272.0	20.0
214	869.0	228.0
215	880.0	423.0
216	231.0	683.0
217	142.0	8.0
218	611.0	385.0
219	760.0	234.0
220	950.0	575.0
221	823.0	394.0
222	676.0	27.0
223	823.0	573.0
224	850.0	625.0
225	923.0	848.0
226	552.0	189.0
227	468.0	743.0
228	522.0	560.0
229	756.0	931.0
230	55.0	920.0
231	47.0	187.0
232	136.0	376.0
233	838.0	595.0
234	833.0	785.0
235	367.0	992.0
236	938.0	833.0
237	389.0	681.0
238	856.0	363.0
239	184.0	380.0
240	751.0	956.0
241	831.0	424.0
242	927.0	752.0
243	711.0	219.0
244	479.0	537.0
245	288.0	947.0
246	175.0	63.0
247	111.0	514.0
248	603.0	634.0
249	90.0	763.0
250	557.0	925.0
251	3.0	914.0
252	682.0	68.0
253	269.0	277.0
254	360.0	979.0
255	958.0	203.0
256	854.0	930.0
257	59.0	285.0
258	697.0	384.0
259	999.0	813.0
260	332.0	70.0
261	399.0	474.0
262	8.0	315.0
263	102.0	310.0
264	913.0	612.0
265	429.0	919.0
266	567.0	461.0
267	700.0	906.0
268	465.0	439.0
269	995.0	588.0
270	969.0	530.0
271	173.0	949.0
272	440.0	702.0
273	141.0	839.0
274	641.0	740.0
275	361.0	430.0
276	365.0	318.0
277	621.0	920.0
278	337.0	330.0
279	50.0	481.0
280	347.0	468.0
281	387.0	470.0
282	642.0	51.0
283	486.0	875.0
284	568.0	101.0
285	95.0	19.0
286	463.0	673.0
287	864.0	522.0
288	792.0	430.0
289	607.0	489.0
290	541.0	477.0
291	830.0	978.0
292	859.0	434.0
293	485.0	690.0
294	944.0	765.0
295	990.0	934.0
296	186.0	358.0
297	494.0	823.0
298	563.0	350.0
299	396.0	727.0
300	272.0	211.0
301	104.0	980.0
302	625.0	64.0
303	58.0	830.0
304	190.0	270.0
305	989.0	645.0
306	179.0	252.0
307	437.0	360.0
308	93.0	576.0
309	521.0	190.0
310	607.0	277.0
311	949.0	574.0
312	713.0	437.0
313	282.0	382.0
314	113.0	15.0
315	459.0	368.0
316	858.0	925.0
317	552.0	873.0
318	235.0	360.0
319	790.0	779.0
320	916.0	377.0
321	817.0	710.0
322	336.0	721.0
323	213.0	486.0
324	350.0	900.0
325	262.0	829.0
326	109.0	521.0
327	960.0	308.0
328	207.0	862.0
329	282.0	555.0
330	72.0	702.0
331	707.0	705.0
332	970.0	106.0
333	75.0	217.0
334	88.0	275.0
335	249.0	910.0
336	622.0	92.0
337	794.0	539.0
338	190.0	261.0
339	912.0	562.0
340	239.0	9.0
341	232.0	154.0
342	53.0	42.0
343	951.0	789.0
344	26.0	748.0
345	222.0	65.0
346	170.0	643.0
347	801.0	788.0
348	889.0	86.0
349	927.0	290.0
350	986.0	224.0
351	473.0	21.0
352	937.0	197.0
353	332.0	363.0
354	399.0	590.0
355	58.0	719.0
356	983.0	139.0
357	757.0	833.0
358	262.0	684.0
359	225.0	375.0
360	44.0	366.0
361	344.0	764.0
362	882.0	90.0
363	720.0	250.0
364	840.0	219.0
365	570.0	238.0
366	514.0	534.0
367	868.0	870.0
368	291.0	431.0
369	733.0	850.0
370	871.0	381.0
371	71.0	526.0
372	24.0	626.0
373	464.0	212.0
374	617.0	137.0
375	311.0	775.0
376	869.0	818.0
377	219.0	453.0
378	871.0	952.0
379	647.0	941.0
380	354.0	911.0
381	787.0	715.0
382	703.0	108.0
383	715.0	611.0
384	217.0	201.0
385	778.0	655.0
386	636.0	539.0
387	231.0	139.0
388	896.0	875.0
389	135.0	951.0
390	149.0	310.0
391	490.0	146.0
392	30.0	507.0
393	629.0	789.0
394	170.0	132.0
395	862.0	16.0
396	965.0	567.0
397	358.0	377.0
398	585.0	856.0
399	296.0	401.0
400	247.0	913.0
401	247.0	435.0
402	728.0	971.0
403	821.0	717.0
404	127.0	290.0
405	552.0	702.0
406	889.0	108.0
407	43.0	645.0
408	59.0	842.0
409	354.0	427.0
410	811.0	541.0
411	646.0	634.0
412	200.0	595.0
413	65.0	882.0
414	190.0	682.0
415	892.0	397.0
416	911.0	972.0
417	924.0	847.0
418	175.0	582.0
419	120.0	413.0
420	251.0	281.0
421	496.0	123.0
422	868.0	438.0
423	252.0	427.0
424	489.0	227.0
425	176.0	25.0
426	824.0	82.0
427	281.0	949.0
428	594.0	400.0
429	690.0	884.0
430	551.0	492.0
431	784.0	755.0
432	739.0	785.0
433	587.0	545.0
434	10.0	280.0
435	412.0	385.0
436	798.0	253.0
437	747.0	872.0
438	118.0	205.0
439	397.0	649.0
440	850.0	69.0
441	878.0	239.0
442	240.0	664.0
443	48.0	117.0
444	677.0	390.0
445	13.0	41.0
446	698.0	192.0
447	253.0	630.0
448	263.0	759.0
449	19.0	187.0
450	266.0	971.0
451	976.0	790.0
452	298.0	612.0
453	87.0	602.0
454	670.0	316.0
455	761.0	466.0
456	672.0	776.0
457	237.0	724.0
458	91.0	189.0
459	229.0	296.0
460	980.0	970.0
461	817.0	9.0
462	663.0	691.0
463	581.0	178.0
464	16.0	299.0
465	1.0	430.0
466	972.0	560.0
467	93.0	782.0
468	285.0	764.0
469	298.0	972.0
470	556.0	678.0
471	624.0	36.0
472	488.0	752.0
473	37.0	137.0
474	409.0	568.0
475	104.0	641.0
476	32.0	545.0
477	881.0	445.0
478	477.0	892.0
479	48.0	558.0
480	528.0	812.0
481	316.0	928.0
482	158.0	954.0
483	46.0	518.0
484	288.0	114.0
485	160.0	636.0
486	806.0	196.0
487	267.0	514.0
488	829.0	404.0
489	59.0	134.0
490	223.0	704.0
491	956.0	308.0
492	368.0	523.0
493	987.0	3.0
494	170.0	703.0
495	938.0	925.0
496	330.0	705.0
497	742.0	338.0
498	859.0	58.0
499	116.0	155.0
500	840.0	71.0
501	456.0	252.0
502	451.0	777.0
503	973.0	57.0
504	225.0	138.0
505	85.0	372.0
506	567.0	505.0
507	64.0	454.0
508	518.0	310.0
509	917.0	341.0
510	776.0	30.0
511	529.0	433.0
512	955.0	382.0
513	62.0	317.0
514	102.0	781.0
515	584.0	849.0
516	471.0	40.0
517	966.0	476.0
518	524.0	326.0
519	20.0	822.0
520	209.0	361.0
521	896.0	507.0
522	470.0	876.0
523	711.0	235.0
524	13.0	312.0
525	450.0	114.0
526	324.0	779.0
527	104.0	241.0
528	931.0	251.0
529	57.0	522.0
530	923.0	27.0
531	730.0	756.0
532	712.0	427.0
533	470.0	964.0
534	54.0	752.0
535	693.0	963.0
536	311.0	479.0
537	271.0	194.0
538	964.0	724.0
539	176.0	808.0
540	384.0	936.0
541	371.0	981.0
542	846.0	857.0
543	945.0	504.0
544	791.0	719.0
545	509.0	607.0
546	348.0	704.0
547	837.0	32.0
548	95.0	639.0
549	751.0	372.0
550	75.0	958.0
551	270.0	637.0
552	62.0	898.0
553	994.0	91.0
554	80.0	955.0
555	744.0	327.0
556	162.0	587.0
557	458.0	595.0
558	372.0	168.0
559	330.0	379.0
560	66.0	190.0
561	197.0	229.0
562	413.0	716.0
563	184.0	835.0
564	151.0	81.0
565	591.0	356.0
566	616.0	852.0
567	35.0	1.0
568	996.0	23.0
569	845.0	854.0
570	850.0	475.0
571	693.0	951.0
572	880.0	672.0
573	495.0	614.0
574	936.0	622.0
575	544.0	21.0
576	289.0	72.0
577	906.0	45.0
578	146.0	971.0
579	54.0	319.0
580	412.0	160.0
581	769.0	573.0
582	709.0	340.0
583	268.0	211.0
584	640.0	263.0
585	604.0	137.0
586	305.0	190.0
587	305.0	835.0
588	66.0	597.0
589	260.0	693.0
590	566.0	121.0
591	867.0	589.0
592	990.0	771.0
593	413.0	711.0
594	580.0	374.0
595	729.0	641.0
596	409.0	283.0
597	67.0	679.0
598	386.0	329.0
599	249.0	424.0
600	528.0	22.0
601	55.0	599.0
602	476.0	8.0
603	862.0	134.0
604	255.0	769.0
605	537.0	489.0
606	296.0	575.0
607	578.0	236.0
608	699.0	693.0
609	503.0	884.0
610	746.0	832.0
611	489.0	958.0
612	672.0	855.0
613	267.0	330.0
614	677.0	724.0
615	262.0	795.0
616	191.0	708.0
617	978.0	896.0
618	394.0	834.0
619	645.0	6.0
620	976.0	593.0
621	106.0	659.0
622	156.0	888.0
623	962.0	119.0
624	948.0	243.0
625	955.0	217.0
626	674.0	251.0
627	615.0	425.0
628	733.0	282.0
629	151.0	182.0
630	613.0	431.0
631	586.0	480.0
632	160.0	725.0
633	154.0	682.0
634	90.0	574.0
635	935.0	608.0
636	760.0	475.0
637	749.0	859.0
638	177.0	967.0
639	297.0	396.0
640	269.0	829.0
641	550.0	370.0
642	397.0	539.0
643	389.0	199.0
644	123.0	973.0
645	498.0	893.0
646	226.0	358.0
647	504.0	637.0
648	966.0	481.0
649	364.0	615.0
650	597.0	134.0
651	12.0	93.0
652	139.0	824.0
653	246.0	744.0
654	391.0	718.0
655	867.0	221.0
656	192.0	857.0
657	70.0	999.0
658	945.0	599.0
659	91.0	436.0
660	375.0	330.0
661	90.0	117.0
662	549.0	410.0
663	295.0	420.0
664	140.0	382.0
665	390.0	352.0
666	945.0	422.0
667	160.0	621.0
668	645.0	42.0
669	379.0	971.0
670	829.0	47.0
671	951.0	753.0
672	250.0	732.0
673	297.0	758.0
674	350.0	340.0
675	4.0	293.0
676	17.0	762.0
677	710.0	511.0
678	610.0	493.0
679	242.0	988.0
680	214.0	834.0
681	13.0	547.0
682	164.0	342.0
683	659.0	346.0
684	809.0	539.0
685	930.0	196.0
686	522.0	862.0
687	831.0	144.0
688	974.0	862.0
689	11.0	303.0
690	643.0	667.0
691	409.0	926.0
692	584.0	675.0
693	137.0	732.0
694	442.0	514.0
695	626.0	494.0
696	719.0	243.0
697	14.0	859.0
698	288.0	802.0
699	790.0	425.0
700	160.0	720.0
701	679.0	76.0
702	501.0	66.0
703	789.0	555.0
704	893.0	652.0
705	995.0	293.0
706	855.0	486.0
707	586.0	489.0
708	604.0	475.0
709	153.0	435.0
710	76.0	380.0
711	728.0	97.0
712	186.0	15.0
713	175.0	942.0
714	346.0	707.0
715	834.0	13.0
716	232.0	991.0
717	408.0	267.0
718	798.0	568.0
719	104.0	139.0
720	540.0	509.0
721	27.0	383.0
722	16.0	704.0
723	818.0	141.0
724	611.0	568.0
725	540.0	277.0
726	544.0	996.0
727	829.0	952.0
728	146.0	558.0
729	276.0	452.0
730	370.0	965.0
731	72.0	268.0
732	555.0	758.0
733	898.0	424.0
DEMAND_SECTION
1	0
2	5
3	3
4	1
5	1
6	5
7	9
8	9
9	3
10	2
11	3
12	4
13	1
14	2
15	4
16	1
17	10
18	9
19	3
20	3
21	3
22	2
23	3
24	1
25	1
26	4
27	5
28	8
29	4
30	7
31	5
32	10
33	3
34	5
35	1
36	10
37	5
38	2
39	1
40	4
41	5
42	4
43	10
44	6
45	4
46	8
47	3
48	6
49	1
50	2
51	2
52	2
53	1
54	7
55	6
56	5
57	4
58	5
59	2
60	3
61	5
62	1
63	5
64	3
65	3
66	10
67	10
68	1
69	5
70	2
71	6
72	3
73	9
74	6
75	9
76	7
77	2
78	9
79	7
80	8
81	3
82	3
83	5
84	10
85	6
86	4
87	9
88	1
89	2
90	6
91	10
92	8
93	6
94	4
95	1
96	8
97	3
98	8
99	7
100	6
101	4
102	1
103	8
104	3
105	9
106	8
107	7
108	10
109	8
110	2
111	10
112	5
113	2
114	4
115	1
116	9
117	1
118	6
119	6
120	8
121	9
122	8
123	7
124	6
125	1
126	10
127	10
128	1
129	9
130	2
131	3
132	10
133	2
134	3
135	1
136	3
137	3
138	2
139	5
140	7
141	2
142	1
143	7
144	4
145	6
146	5
147	1
148	2
149	5
150	10
151	1
152	3
153	4
154	1
155	3
156	1
157	1
158	6
159	3
160	2
161	7
162	10
163	6
164	3
165	1
166	5
167	8
168	1
169	8
170	8
171	2
172	1
173	7
174	1
175	1
176	4
177	10
178	6
179	2
180	2
181	2
182	1
183	8
184	4
185	3
186	6
187	7
188	4
189	6
190	6
191	6
192	6
193	5
194	4
195	6
196	10
197	3
198	1
199	5
200	3
201	10
202	4
203	6
204	6
205	4
206	9
207	6
208	3
209	2
210	8
211	5
212	2
213	2
214	4
215	1
216	10
217	2
218	3
219	8
220	9
221	9
222	5
223	2
224	3
225	8
226	4
227	1
228	3
229	9
230	7
231	6
232	9
233	5
234	3
235	6
236	4
237	3
238	9
239	7
240	8
241	8
242	1
243	7
244	4
245	7
246	4
247	4
248	8
249	7
250	1
251	5
252	8
253	1
254	10
255	6
256	10
257	3
258	10
259	10
260	5
261	1
262	8
263	3
264	5
265	10
266	5
267	2
268	8
269	8
270	7
271	7
272	6
273	4
274	5
275	9
276	2
277	8
278	7
279	2
280	5
281	6
282	3
283	7
284	4
285	4
286	5
287	1
288	5
289	7
290	2
291	4
292	9
293	10
294	10
295	2
296	10
297	2
298	8
299	2
300	10
301	9
302	8
303	1
304	7
305	8
306	10
307	8
308	7
309	8
310	8
311	7
312	10
313	5
314	7
315	3
316	1
317	9
318	5
319	2
320	6
321	6
322	10
323	9
324	7
325	8
326	7
327	6
328	2
329	7
330	5
331	7
332	4
333	9
334	7
335	2
336	7
337	4
338	7
339	5
340	4
341	7
342	3
343	6
344	10
345	1
346	4
347	2
348	10
349	8
350	7
351	2
352	10
353	7
354	6
355	7
356	3
357	7
358	5
359	9
360	8
361	2
362	5
363	3
364	2
365	8
366	10
367	5
368	5
369	1
370	6
371	8
372	4
373	8
374	6
375	10
376	3
377	9
378	4
379	4
380	5
381	2
382	5
383	6
384	6
385	7
386	8
387	5
388	9
389	7
390	10
391	6
392	5
393	3
394	9
395	2
396	8
397	8
398	1
399	4
400	8
401	5
402	7
403	7
404	1
405	2
406	3
407	6
408	7
409	7
410	9
411	7
412	9
413	4
414	4
415	8
416	10
417	1
418	9
419	3
420	7
421	1
422	6
423	1
424	3
425	7
426	6
427	2
428	3
429	1
430	7
431	2
432	4
433	2
434	1
435	9
436	7
437	10
438	10
439	5
440	10
441	1
442	7
443	1
444	4
445	3
446	10
447	2
448	2
449	7
450	7
451	1
452	2
453	1
454	9
455	7
456	8
457	10
458	8
459	1
460	1
461	8
462	3
463	5
464	1
465	9
466	8
467	6
468	6
469	3
470	1
471	4
472	10
473	8
474	10
475	3
476	3
477	3
478	8
479	1
480	9
481	1
482	3
483	6
484	5
485	7
486	4
487	8
488	9
489	9
490	4
491	10
492	4
493	1
494	3
495	5
496	6
497	2
498	9
499	4
500	9
501	5
502	2
503	5
504	4
505	4
506	7
507	5
508	9
509	5
510	4
511	1
512	8
513	10
514	8
515	8
516	9
517	2
518	7
519	10
520	3
521	1
522	5
523	6
524	6
525	2
526	3
527	7
528	9
529	8
530	3
531	5
532	10
533	5
534	8
535	3
536	10
537	6
538	9
539	4
540	5
541	10
542	3
543	4
544	7
545	10
546	1
547	6
548	8
549	6
550	3
551	5
552	9
553	2
554	1
555	10
556	9
557	1
558	9
559	6
560	5
561	4
562	1
563	5
564	2
565	6
566	5
567	1
568	6
569	10
570	7
571	9
572	3
573	10
574	10
575	6
576	5
577	8
578	4
579	9
580	4
581	2
582	7
583	8
584	3
585	9
586	3
587	10
588	6
589	1
590	6
591	4
592	4
593	5
594	4
595	6
596	7
597	10
598	8
599	5
600	10
601	3
602	10
603	1
604	7
605	6
606	10
607	10
608	9
609	10
610	6
611	7
612	9
613	1
614	5
615	3
616	4
617	8
618	10
619	5
620	9
621	4
622	9
623	7
624	2
625	10
626	10
627	5
628	9
629	7
630	1
631	7
632	10
633	2
634	9
635	7
636	9
637	10
638	9
639	10
640	7
641	3
642	8
643	8
644	7
645	4
646	1
647	4
648	9
649	6
650	4
651	4
652	3
653	10
654	3
655	8
656	9
657	3
658	2
659	2
660	9
661	9
662	2
663	3
664	3
665	3
666	4
667	6
668	2
669	3
670	3
671	10
672	6
673	4
674	10
675	1
676	1
677	3
678	2
679	5
680	7
681	9
682	4
683	7
684	9
685	1
686	4
687	1
688	10
689	3
690	9
691	6
692	2
693	9
694	4
695	5
696	8
697	3
698	6
699	9
700	9
701	7
702	5
703	5
704	5
705	9
706	2
707	5
708	3
709	10
710	2
711	10
712	5
713	4
714	10
715	2
716	10
717	9
718	7
719	1
720	6
721	4
722	2
723	6
724	9
725	6
726	3
727	9
728	2
729	7
730	5
731	4
732	2
733	4
DEPOT_SECTION
1
-1
EOF
